$rem
method                  b97-m
basis                   STO-3G
qm_mm_interface         oniom
force_field             oplsaa
user_connect            true
jobtype                 opt
molden_format           true
$end

$qm_atoms
48 425 426 427 463 464 465 466 679 680 681 682 694 704 705 708 709 2316 2317 2318 2319 2320 2321 2322 2323
$end

$molecule
0 1
N      52.32000     16.12000     12.18500
C      53.29100     15.88500     11.08400
C      54.65500     16.51900     11.35800
O      55.61800     15.79700     11.54900
C      52.72200     16.37500      9.75100
C      52.79100     15.35400      8.62500
C      53.55800     15.88800      7.41500
N      53.85100     15.01400      6.45100
O      53.88300     17.07400      7.36300
N      54.77900     17.84500     11.33700
C      56.04000     18.45200     11.74300
C      56.09000     19.20400     13.08200
O      55.10100     19.75800     13.56200
C      56.57100     19.33900     10.62800
C      55.76500     20.56500     10.37600
C      56.17100     21.78700     10.86600
C      54.62300     20.51300      9.61600
C      55.43800     22.92300     10.61100
C      53.88300     21.65000      9.36700
C      54.29200     22.85200      9.85300
N      57.27500     19.22200     13.67600
C      57.52300     20.04200     14.83500
C      58.59300     21.06100     14.55800
O      59.49900     20.82300     13.76000
C      57.96200     19.17200     15.98600
N      58.52800     22.18800     15.25300
C      59.65400     23.10500     15.25000
C      60.55800     22.79100     16.42400
O      60.07100     22.51900     17.53200
C      59.16800     24.55000     15.31100
C      58.68600     25.09200     13.97800
C      58.69700     24.30200     12.85000
C      58.22300     26.38000     13.86900
C      58.26200     24.77900     11.64100
C      57.78100     26.87000     12.64800
C      57.80400     26.06600     11.53500
N      61.87500     22.80900     16.17600
C      62.86100     22.64400     17.24400
C      63.94500     23.67800     17.26600
O      64.45500     24.08400     16.24200
C      63.59300     21.32600     17.14200
C      62.61400     20.18700     17.20300
C      64.38700     21.29000     15.88200
N      64.34000     24.04600     18.46900
C      65.04300     25.28100     18.70700
C      66.37200     25.10400     19.41100
O      66.42500     24.72000     20.56600
C      64.17700     26.13400     19.59000
C      62.95600     26.60900     18.91700
C      61.77600     25.92200     19.04400
C      62.99100     27.73700     18.13000
C      60.66400     26.37100     18.41700
C      61.87900     28.17500     17.51500
C      60.71000     27.49800     17.66500
N      67.43500     25.50000     18.73700
C      68.80200     25.35700     19.26000
C      69.13000     26.29600     20.39700
O      68.35400     27.18100     20.68300
C      69.70100     25.62200     18.04800
C      68.81500     26.26500     16.99800
C      67.38700     26.17600     17.43700
N      70.25500     26.05200     21.05600
C      70.80000     26.97800     22.02700
C      72.30500     26.96100     21.96400
O      72.87000     26.76400     20.90000
N      72.96300     27.18500     23.09000
C      74.39100     27.50800     23.05900
C      75.13300     26.51900     22.17900
O      74.83800     25.33300     22.19000
C      74.98900     27.51100     24.45300
C      76.29400     28.25900     24.53500
C      76.13200     29.69200     25.00400
N      75.27300     29.91400     26.01100
O      76.78800     30.58700     24.47300
N      76.07900     27.03300     21.40100
C      76.80800     26.23600     20.43500
C      76.48000     26.61800     19.00300
O      77.28500     26.43700     18.09200
N      75.28200     27.14000     18.78800
C      74.80100     27.34000     17.43000
C      75.11800     28.71700     16.86100
O      75.03800     28.93200     15.66700
C      73.30200     27.09000     17.40500
O      73.04600     25.73900     17.74900
N      75.46400     29.65000     17.73400
C      75.87800     30.99100     17.35500
C      76.93300     30.95300     16.24000
O      77.85300     30.14000     16.27500
C      76.45600     31.66500     18.59900
C      77.91300     31.28200     18.89300
C      78.10100     30.61700     20.25100
N      79.17900     30.97700     20.94900
O      77.28200     29.79800     20.66200
N      76.79300     31.81500     15.24100
C      77.94900     32.33400     14.51100
C      77.85800     33.80300     14.22300
O      76.78500     34.36300     14.06500
C      78.19300     31.62500     13.15900
C      79.21400     30.53600     13.33100
O      77.01700     30.94400     12.71400
N      79.02900     34.40600     14.14000
C      79.16000     35.73500     13.64900
C      78.74500     35.61800     12.21000
O      79.29200     34.80700     11.48000
C      80.60500     36.19600     13.76800
C      80.80600     37.47200     13.01900
C      80.99800     36.38200     15.23100
N      77.74100     36.39300     11.81300
C      77.22200     36.30900     10.46500
C      75.83700     35.70100     10.37200
O      75.19600     35.76900      9.32700
N      75.36000     35.10700     11.45600
C      74.22500     34.20800     11.34400
C      72.99400     35.00300     10.89900
O      72.82600     36.12200     11.31500
C      73.98200     33.49000     12.67000
C      74.00500     34.39900     13.88200
S      73.42800     33.53900     15.32800
C      73.44700     34.81000     16.52000
N      72.16600     34.41300     10.03800
C      70.92800     35.03400      9.54800
C      71.17300     36.17000      8.56500
O      70.23400     36.76500      8.03900
C      70.04000     35.54500     10.69100
C      69.38600     34.52000     11.63400
C      68.01900     35.00000     12.07100
C      69.25300     33.18300     10.99000
N      72.42600     36.46100      8.26400
C      72.67700     37.51900      7.29600
C      71.80000     37.35900      6.04800
O      71.14400     38.30500      5.61600
C      74.13000     37.56400      6.92600
N      71.81000     36.16700      5.46700
C      71.10500     35.90400      4.22200
C      69.63400     36.08600      4.46100
O      68.91900     36.61800      3.62800
C      71.36900     34.48300      3.71800
C      72.79600     34.29100      3.19900
O      73.44900     35.30600      2.87500
O      73.34900     33.17200      3.06900
N      69.14000     35.65100      5.59600
C      67.70300     35.67700      5.72700
C      67.38500     37.14600      5.78800
O      66.45900     37.62300      5.14500
C      67.23300     34.91500      6.95700
C      65.75200     34.62200      6.96700
S      65.26700     33.19400      6.01200
C      66.71500     32.27600      6.08200
N      68.20200     37.87800      6.53000
C      67.94200     39.28700      6.78500
C      67.76100     40.03500      5.46100
O      66.96100     40.96800      5.34300
C      69.07400     39.89700      7.60500
N      68.49300     39.61600      4.44800
C      68.50300     40.36000      3.19500
C      67.17800     40.16100      2.46300
O      66.78000     40.98400      1.64100
C      69.65500     39.90500      2.34400
N      66.48300     39.06900      2.76200
C      65.27300     38.76100      2.02600
C      64.05600     38.96500      2.87900
O      62.95000     38.84500      2.39000
C      65.30500     37.34100      1.44700
O      65.17800     37.37900      0.03000
N      64.25800     39.29900      4.15200
C      63.15000     39.42900      5.10000
C      63.39200     40.49900      6.15800
O      63.95700     40.24300      7.21200
C      62.88400     38.10100      5.81000
C      62.45600     37.01700      4.88800
C      61.13000     36.83900      4.58400
C      63.38400     36.17900      4.30100
C      60.72200     35.85400      3.73000
C      62.99700     35.20200      3.43600
C      61.65400     35.03100      3.15600
O      61.24700     34.03900      2.27000
N      62.92600     41.69500      5.87500
C      63.05100     42.83900      6.78000
C      62.73000     42.54400      8.23000
O      63.20100     43.24300      9.11800
C      62.02700     43.81800      6.23800
C      61.99000     43.51800      4.77900
C      62.26400     42.03800      4.61900
N      61.91200     41.54600      8.49800
C      61.44000     41.41200      9.86900
C      62.51000     40.82300     10.77300
O      62.43200     40.97700     11.98700
C      60.20500     40.56000      9.93200
C      59.47000     40.86400     11.23000
C      60.59700     39.14200      9.82700
C      58.06000     40.34700     11.23800
N      63.51000     40.16500     10.18100
C      64.63200     39.69600     10.95100
C      65.26000     40.85000     11.70700
O      65.44700     40.76200     12.92000
C      65.69000     39.00700     10.10400
C      66.86600     38.60100     10.98100
C      65.12300     37.78200      9.41300
N      65.56700     41.94400     11.01600
C      66.17100     43.11000     11.67700
C      65.17100     43.87900     12.53600
O      65.54700     44.40300     13.59200
C      66.83000     44.04500     10.66600
C      68.14000     43.51300     10.13000
C      68.99400     44.54000      9.39200
O      69.31600     45.61300      9.96600
O      69.37800     44.24500      8.23200
N      63.90900     43.95700     12.11700
C      62.96000     44.70700     12.92200
C      63.07000     43.98400     14.23300
O      63.12000     44.59900     15.28500
C      61.52300     44.73000     12.35500
C      61.46100     44.68900     10.82500
C      60.25300     45.42100     10.20800
O      59.10500     44.90400     10.33200
O      60.44600     46.49600      9.56300
N      63.19400     42.66900     14.15500
C      63.13800     41.83400     15.33800
C      64.33600     42.07800     16.25900
O      64.19200     42.19800     17.49000
C      63.08200     40.36100     14.92600
C      62.82300     39.46600     16.12800
O      61.94000     40.13800     14.08800
N      65.52400     42.14200     15.68700
C      66.68300     42.36300     16.52100
C      66.62100     43.75600     17.10900
O      67.19300     44.04500     18.16200
C      67.96300     42.14300     15.73200
C      68.39600     40.71600     15.71200
C      67.80900     39.81800     14.84900
C      69.36500     40.25900     16.59300
C      68.20100     38.51100     14.83700
C      69.75100     38.96300     16.58700
C      69.16400     38.08200     15.70100
N      65.91600     44.62900     16.41000
C      65.76700     45.99800     16.85900
C      64.95700     45.97500     18.13500
O      65.34300     46.55300     19.14300
C      65.08700     46.80400     15.79500
N      63.86300     45.22700     18.10800
C      62.97700     45.16800     19.25400
C      63.74400     44.69800     20.50300
O      63.53500     45.20900     21.59800
C      61.71000     44.36300     18.91900
C      60.82000     45.07100     17.88700
C      59.83700     44.15600     17.15900
O      59.31700     43.21700     17.80500
O      59.57900     44.39000     15.94100
N      64.68600     43.78800     20.32100
C      65.40500     43.20700     21.45000
C      66.57400     44.07300     21.86400
O      66.87100     44.21100     23.03800
C      65.90300     41.84600     21.08100
N      67.24200     44.62900     20.86900
C      68.27000     45.60900     21.07600
C      67.76100     46.71400     22.00200
O      68.45300     47.15300     22.93900
C      68.67500     46.15300     19.72700
O      69.88800     45.58800     19.26500
N      66.51800     47.11700     21.78900
C      65.93800     48.18300     22.58600
C      65.63000     47.71500     23.98900
O      65.26800     48.50800     24.82800
C      64.66700     48.70400     21.93500
N      65.72400     46.42500     24.23800
C      65.41100     45.89400     25.56100
C      66.69900     45.54800     26.31800
O      66.71400     45.52100     27.53800
C      64.53400     44.67000     25.43100
N      67.76600     45.27300     25.57400
C      69.05300     44.99800     26.14600
C      69.84200     46.28100     26.30800
O      70.72000     46.38700     27.17100
C      69.81400     44.03600     25.24600
C      69.10800     42.69400     24.99500
C      69.76700     41.88900     23.86000
C      69.11500     41.90800     26.24900
N      69.54000     47.26100     25.45900
C      70.19900     48.54900     25.53200
C      71.51700     48.49400     24.81900
O      72.44600     49.20900     25.18600
N      71.59600     47.62300     23.81500
C      72.67800     47.64600     22.84300
C      72.24500     46.99700     21.54700
O      71.18000     46.39800     21.47700
C      73.91400     46.94400     23.37900
C      73.77800     45.45200     23.57900
C      74.04300     44.56400     22.55900
C      73.39700     44.93500     24.79900
C      73.91400     43.19100     22.76200
C      73.27200     43.58200     25.00500
C      73.53400     42.71500     24.00100
O      73.41000     41.36200     24.23800
N      73.06500     47.15400     20.51300
C      72.74400     46.64600     19.18500
C      73.09400     45.19000     19.09400
O      74.26900     44.86200     18.95600
C      73.56300     47.37100     18.12800
C      72.95300     47.26900     16.75500
O      72.13900     46.32500     16.57800
O      73.22200     48.07100     15.81000
N      72.08600     44.32300     19.14700
C      72.30000     42.89500     19.22700
C      72.56200     42.34100     17.84100
O      73.30500     41.37400     17.67400
C      71.07000     42.23100     19.81900
C      71.19000     40.71600     20.06000
C      72.26400     40.46400     21.08200
C      69.86700     40.12800     20.52200
N      71.95300     42.96800     16.84300
C      72.17600     42.59600     15.45500
C      73.63200     42.89000     15.15100
O      74.34500     42.05500     14.62100
C      71.22200     43.36700     14.52300
C      71.43200     43.14200     13.05400
C      71.93600     44.03200     12.15300
C      71.12500     41.95900     12.31400
C      71.47200     42.20000     10.96800
C      70.59100     40.72000     12.65000
N      71.96000     43.47600     10.89500
C      71.31100     41.25000      9.97100
C      70.43800     39.77900     11.66100
C      70.79900     40.04900     10.33200
N      74.08800     44.06900     15.53600
C      75.46600     44.44200     15.25600
C      76.36200     43.46000     15.96400
O      77.40000     43.06100     15.44800
C      75.75200     45.86400     15.72500
N      75.94400     43.03300     17.14500
C      76.70900     42.02600     17.86500
C      76.86200     40.77800     17.00500
O      77.96400     40.34600     16.73200
C      76.05100     41.68900     19.19600
C      76.91400     40.72300     20.00400
C      78.38100     41.12400     19.94000
C      76.44300     40.59600     21.45100
N      75.75000     40.21500     16.55300
C      75.80700     38.96000     15.84300
C      76.52800     39.09700     14.51500
O      77.06600     38.12300     14.00700
C      74.40400     38.42300     15.57700
C      73.53300     38.52100     16.79500
O      73.75100     39.25300     14.61200
N      76.49900     40.27900     13.90900
C      76.97700     40.40900     12.53400
C      78.47300     40.65900     12.50800
O      79.17000     40.27700     11.57800
C      76.25800     41.53500     11.81700
C      74.83900     41.22900     11.47500
C      74.69700     39.91500     10.75600
N      74.20900     38.90600     11.47100
O      75.01900     39.80400      9.56700
N      78.96700     41.31400     13.54000
C      80.32500     41.81300     13.50900
C      81.16700     41.14300     14.59900
O      82.39900     41.16600     14.55600
C      80.31000     43.33800     13.64900
C      80.19900     44.07600     12.30800
C      78.94700     44.96600     12.20300
N      78.94700     46.09800     12.93600
O      78.00100     44.64000     11.46000
N      80.49800     40.51600     15.56000
C      81.16600     40.01100     16.74200
C      81.87300     41.10400     17.51300
O      81.37100     42.23000     17.63000
N      83.04700     40.76800     18.03800
C      83.66700     39.46200     17.78000
C      82.92700     38.25800     18.36300
O      82.06300     38.38300     19.23100
C      85.04200     39.57600     18.45200
C      85.24800     41.02100     18.70000
C      83.89000     41.62000     18.89000
N      83.30000     37.09200     17.85700
C      83.05500     35.82300     18.50900
C      83.28100     35.80300     20.02200
O      82.38800     35.40900     20.77900
C      83.91700     34.76500     17.85600
N      84.48100     36.16800     20.46400
C      84.79800     36.05300     21.87300
C      83.56500     36.54000     22.59200
O      83.12100     35.94700     23.56900
C      86.00600     36.90900     22.24000
C      86.97000     36.26400     23.23100
C      88.39800     36.81600     23.13000
O      88.86200     37.11200     21.99700
O      89.06700     36.95400     24.18700
N      82.99600     37.61900     22.07800
C      81.97300     38.35200     22.78500
C      80.65200     37.66300     22.57300
O      79.94500     37.31500     23.53100
C      81.88000     39.77200     22.24300
C      82.84800     40.75600     22.87800
C      82.49700     41.07200     24.32200
O      81.29700     41.29900     24.62700
O      83.43100     41.09700     25.15400
N      80.31700     37.46500     21.30300
C      79.06700     36.79800     20.94200
C      78.95700     35.44000     21.63500
O      77.87000     34.89200     21.74200
C      78.94300     36.61300     19.42300
C      77.74600     35.74700     18.99500
C      76.46300     36.27900     19.61500
C      77.59300     35.63100     17.47000
N      80.08100     34.89400     22.09300
C      80.06000     33.58900     22.73200
C      79.89600     33.67000     24.23600
O      79.78800     32.63900     24.89800
C      81.31700     32.79900     22.39900
C      81.35000     32.35000     20.94900
N      82.50300     31.85500     20.50300
O      80.35700     32.47400     20.23000
N      79.87800     34.87400     24.80100
C      79.68100     34.95500     26.24000
C      78.19400     34.73800     26.49000
O      77.35400     35.31300     25.79100
C      80.14500     36.29900     26.82100
C      81.36100     36.92900     26.15700
C      82.19800     37.67900     27.20200
C      82.65300     39.07800     26.73600
N      84.10000     39.37000     27.05000
N      77.86200     33.88700     27.45400
C      76.54600     33.26500     27.46300
C      75.40300     34.27400     27.65100
O      74.32100     34.07000     27.13200
C      76.47100     32.15500     28.52700
C      76.44300     32.74700     29.92700
O      75.23000     31.43000     28.38900
N      75.64200     35.35800     28.37300
C      74.57300     36.32600     28.65300
C      74.30600     37.20600     27.42900
O      73.42900     38.05900     27.43900
C      74.90000     37.19500     29.88500
C      76.18200     37.94600     29.74600
C      76.32500     39.21200     29.33100
C      77.50600     37.45600     30.00200
C      78.40000     38.50000     29.71800
C      78.02700     36.23800     30.45200
N      77.65300     39.56300     29.30800
C      79.77800     38.37200     29.85600
C      79.39700     36.10900     30.59100
C      80.25900     37.17200     30.28700
N      75.04600     36.97800     26.36000
C      74.72500     37.64200     25.10900
C      74.31000     36.61500     24.06900
O      73.49300     36.89300     23.18800
C      75.91300     38.46900     24.61900
C      76.46800     39.36100     25.69100
C      77.61300     40.25500     25.21600
N      77.68600     41.46300     25.77500
O      78.43800     39.84900     24.38300
N      74.87300     35.42100     24.19100
C      74.53800     34.34400     23.28600
C      73.06700     34.02600     23.42800
O      72.31800     33.87400     22.45400
C      75.33500     33.12700     23.64100
C      74.96500     31.98000     22.72600
O      76.71700     33.37500     23.38300
N      72.64300     33.91000     24.66200
C      71.31400     33.42700     24.86900
C      70.34900     34.39700     24.19300
O      69.46400     33.98300     23.46600
C      71.04500     33.25400     26.34800
C      71.50200     31.91300     26.85000
C      71.46000     31.84200     28.35600
N      72.61000     31.55600     28.98100
O      70.39900     32.06600     28.95400
N      70.54500     35.69400     24.39000
C      69.62700     36.68000     23.80600
C      69.73900     36.65700     22.29200
O      68.73800     36.73200     21.59900
C      70.11000     38.01300     24.37700
C      71.05000     37.64400     25.49400
C      71.64700     36.32000     25.13500
N      70.95000     36.50500     21.77600
C      71.11300     36.51800     20.33400
C      70.35400     35.33700     19.71300
O      69.53800     35.53700     18.81200
C      72.58400     36.50100     19.95400
N      70.59700     34.12700     20.21000
C      69.91200     32.94800     19.68500
C      68.39100     33.03100     19.82800
O      67.66000     32.77400     18.87000
C      70.41000     31.66400     20.36700
C      71.83200     31.17900     20.04400
C      72.18200     30.06000     20.95100
C      72.02500     30.76500     18.59600
N      67.91200     33.37100     21.02200
C      66.49000     33.62200     21.20800
C      65.97900     34.47700     20.06700
O      64.90800     34.23300     19.51500
C      66.22200     34.35400     22.50500
C      64.71900     34.55600     22.67000
C      64.09000     33.22900     23.01200
C      64.38800     35.56100     23.72200
N      66.74900     35.51000     19.73400
C      66.30600     36.53000     18.78900
C      66.30500     35.94900     17.38500
O      65.33100     36.06900     16.64500
C      67.22600     37.77700     18.85000
C      66.61600     38.97300     18.09800
O      67.33200     38.24600     20.19900
N      67.38800     35.30000     17.00500
C      67.38200     34.63900     15.71200
C      66.11400     33.78200     15.56900
O      65.44300     33.77800     14.53100
C      68.59500     33.80300     15.56200
N      65.78600     33.04000     16.61100
C      64.81800     31.98400     16.43800
C      63.46900     32.63100     16.26900
O      62.68300     32.27900     15.36600
C      64.81000     31.04900     17.63900
O      65.49800     29.87000     17.29500
N      63.21000     33.59400     17.14400
C      61.94100     34.27300     17.11500
C      61.81000     34.97900     15.74500
O      60.76500     34.96900     15.10200
C      61.85800     35.26300     18.23400
C      60.49200     35.86700     18.23600
C      62.16300     34.59700     19.56700
N      62.90800     35.55300     15.28000
C      62.90300     36.17100     13.98700
C      62.50800     35.16600     12.91400
O      61.50000     35.35300     12.25400
C      64.25200     36.78700     13.70500
N      63.28000     34.09500     12.73800
C      62.90700     33.04100     11.77200
C      61.46300     32.53900     11.93700
O      60.80300     32.21500     10.95400
C      63.85300     31.85400     11.86100
C      65.31300     32.21300     11.58200
C      66.19800     31.02100     11.75100
C      65.46400     32.77200     10.17600
N      60.94400     32.49100     13.15400
C      59.57000     32.02000     13.29900
C      58.63500     33.06400     12.70900
O      57.71200     32.74300     11.95100
C      59.23400     31.76900     14.76800
C      57.91000     31.13000     15.01400
C      57.72900     29.77400     14.82800
C      56.84200     31.87700     15.48000
C      56.49300     29.17000     15.07100
C      55.60800     31.29700     15.73000
C      55.43500     29.93600     15.52300
O      54.20500     29.35700     15.76500
N      58.88400     34.32200     13.06200
C      58.08400     35.41800     12.55600
C      58.03400     35.37600     11.03800
O      56.99300     35.64800     10.42700
C      58.66100     36.74900     13.00900
C      58.09400     37.19500     14.32400
C      58.88300     38.27600     14.96400
N      58.39700     38.57000     16.29500
C      58.55700     39.73800     16.87000
N      59.19400     40.69600     16.21600
N      58.09400     39.95500     18.09500
N      59.14500     35.01500     10.41500
C      59.09900     34.89600      8.98200
C      58.10500     33.81000      8.64100
O      57.33000     33.95600      7.72200
C      60.45600     34.57400      8.34700
C      60.27900     34.30900      6.87300
C      61.43100     35.71300      8.54600
N      58.12300     32.70200      9.35900
C      57.31500     31.56400      8.92300
C      55.88100     32.00900      8.83300
O      55.21700     31.81400      7.80800
C      57.41100     30.45600      9.92600
C      56.61200     29.26100      9.63000
C      55.46500     28.86000     10.25500
C      56.92900     28.24600      8.67800
C      55.92300     27.26800      8.75400
C      57.96000     28.06700      7.75500
N      55.04300     27.65900      9.73200
C      55.91200     26.15000      7.93700
C      57.94800     26.93300      6.94900
C      56.92800     26.00200      7.04600
N      55.41900     32.63900      9.91100
C      54.03600     33.07300     10.00200
C      53.75600     34.15400      8.97400
O      52.67500     34.22400      8.39800
C      53.72500     33.60900     11.39400
C      53.94300     32.61300     12.52900
C      52.76300     32.56200     13.48200
N      52.00400     31.45700     13.41900
O      52.52100     33.51800     14.25700
N      54.73300     35.01400      8.75000
C      54.52100     36.12300      7.85200
C      54.11500     35.55200      6.51300
O      53.29600     36.12400      5.79800
C      55.79700     36.91000      7.69800
C      55.73500     38.27200      8.27200
C      56.95000     39.06300      7.89400
N      56.96700     40.33200      8.26600
O      57.87600     38.52800      7.27200
N      54.69100     34.41000      6.18300
C      54.53500     33.85300      4.86300
C      53.43100     32.80200      4.84400
O      53.35500     31.98200      3.92800
C      55.86500     33.26600      4.40700
C      56.95200     34.34300      4.27800
C      56.96600     35.05300      2.89600
N      57.31900     34.30600      1.85600
O      56.67800     36.25400      2.79100
N      52.56700     32.83700      5.85100
C      51.47400     31.89100      5.94300
C      51.97100     30.46200      6.07900
O      51.35200     29.52500      5.58600
N      53.10800     30.30900      6.75100
C      53.47400     29.06200      7.39600
C      52.41900     28.58800      8.36300
O      51.87000     29.36200      9.13100
N      52.10800     27.30100      8.29800
C      51.21500     26.70600      9.28000
C      51.97600     26.38100     10.54600
O      53.18400     26.14300     10.54000
C      50.53900     25.44700      8.72400
C      49.16000     25.17000      9.32100
C      48.84100     23.64700      9.38300
C      47.36200     23.32400      8.99400
N      46.35000     24.36100      9.43400
N      51.24500     26.37300     11.64100
C      51.83100     26.18700     12.94800
C      52.15400     24.73500     13.11500
O      51.39800     23.87200     12.70900
C      50.86400     26.63300     14.03200
N      53.27100     24.47200     13.75600
C      53.75800     23.11800     13.89900
C      52.88600     22.39600     14.90400
O      52.11200     23.01000     15.60200
C      55.17500     23.32100     14.42700
C      55.12800     24.63600     15.15900
C      54.10200     25.45500     14.47100
N      52.99800     21.08700     14.96400
C      52.16400     20.29900     15.85700
C      52.73500     20.34500     17.27300
O      52.00300     20.24100     18.25300
C      52.09500     18.86700     15.34600
N      54.05300     20.50600     17.34500
C      54.84100     20.25800     18.54700
C      56.08800     21.17200     18.45300
O      56.67400     21.31800     17.37600
C      55.29800     18.78500     18.60200
C      54.30500     17.73200     19.13300
S      55.05800     16.79300     20.46400
C      56.80800     17.24600     20.25600
N      56.52400     21.75100     19.57100
C      57.88100     22.29500     19.62400
C      58.73000     21.75800     20.77500
O      58.22500     21.40300     21.83400
C      57.86100     23.83300     19.67700
C      56.50300     24.44900     19.94200
S      56.57300     26.29200     19.90200
C      56.29500     26.56100     18.25500
N      60.03800     21.74900     20.54400
C      61.02300     21.58700     21.59600
C      62.22400     22.48000     21.32300
O      62.48600     22.85900     20.18200
C      61.46100     20.18400     21.65700
N      62.94600     22.82300     22.38100
C      64.09300     23.69600     22.27900
C      65.19800     23.22000     23.20600
O      64.97800     22.89700     24.34600
N      66.39800     23.12700     22.67700
C      67.48400     22.54300     23.40200
C      68.09800     23.58000     24.32200
O      68.64900     24.56600     23.86200
C      68.51000     22.07300     22.40100
C      69.59600     21.21400     22.97600
C      69.70300     19.87100     23.08800
N      70.78400     21.73100     23.44300
C      71.57400     20.74400     23.81700
N      70.93900     19.60600     23.62000
N      67.99500     23.35300     25.62700
C      68.54500     24.28300     26.58800
C      67.89400     25.64200     26.34800
O      66.70800     25.80400     26.59200
C      70.05900     24.32700     26.42400
O      70.68100     25.13800     27.40400
N      67.05400     27.08400     23.82600
C      65.96100     26.79200     22.91000
C      64.57200     26.72400     23.53600
O      63.58200     27.16300     22.93000
N      64.48000     26.15900     24.73700
C      63.18000     26.00500     25.37200
C      62.51000     27.37100     25.55700
O      61.28800     27.50400     25.46400
C      63.32800     25.27100     26.69900
C      62.03200     24.89700     27.36300
C      62.17200     23.63900     28.18700
O      62.73200     22.64700     27.66200
O      61.72100     23.64300     29.36000
N      63.32700     28.39000     25.78000
C      62.82800     29.74900     25.89000
C      62.24600     30.21100     24.56200
O      61.22900     30.87800     24.53200
C      63.94300     30.69100     26.38600
C      64.15500     30.56700     27.87900
C      65.00300     29.59700     28.40000
C      63.44500     31.35000     28.76700
C      65.17600     29.44800     29.73100
C      63.60700     31.19500     30.11800
C      64.47500     30.24400     30.59000
O      64.66200     30.09100     31.93600
N      62.87700     29.85700     23.45400
C      62.38900     30.33800     22.17500