$molecule
0 1
  N   -6.3700270    2.1995870   -0.3396670
  C   -5.0099820    1.8362040    0.0815300
  C   -4.0546120    2.9842490   -0.2083090
  N   -2.7529100    2.9106580    0.1910550
  C   -1.8009220    3.9821690   -0.0788610
  H   -2.4476200    2.0656030    0.6949970
  C   -0.3968140    3.6668180    0.4055470
  N    0.6060980    4.5633240    0.1762680
  C    1.9895030    4.3570360    0.6027600
  C    2.7590810    5.6423270    0.3803540
  O    3.2866540    6.3229750    1.4211880
  H    3.1993400    6.0126470    2.3331340
  O    2.8938920    6.0857920   -0.7499480
  O   -0.1695030    2.6257520    1.0063090
  O   -4.4592020    3.9791200   -0.7968070
  H   -6.6813620    3.0426780    0.1962350
  H   -7.0483420    1.4406040   -0.1136770
  H    0.3571370    5.4457400   -0.2987670
  O   -2.2438820    5.1603670    0.5472430
  H   -1.7500340    4.1150720   -1.1864050
  H   -2.0982250    5.9086720   -0.0887630
  C   -4.5342200    0.5649510   -0.6636980
  H   -4.9995910    1.6574690    1.1802660
  C   -5.2818100   -0.6944400   -0.3119310
  H   -3.4695740    0.3606050   -0.4260090
  H   -4.6147900    0.7425540   -1.7582370
  N   -5.0193130   -1.8822550   -0.8892550
  N   -6.2613410   -0.7836930    0.6133620
  C   -6.6263340   -2.0807350    0.6034520
  C   -5.8623550   -2.7579140   -0.3207510
  H   -7.3983960   -2.5044990    1.2316030
  H   -4.3081510   -2.0846860   -1.6265490
  H   -5.9155690   -3.8118390   -0.5600930
  C    2.6274300    3.1645730   -0.1685880
  H    1.9825450    4.1277230    1.6912550
  C    4.0093780    2.6627490    0.3372430
  H    2.6760890    3.4011530   -1.2545740
  H    1.9459560    2.2976420   -0.0610160
  C    5.1550680    3.6685990    0.1477100
  H    5.2523890    3.9567750   -0.9209260
  H    6.1139840    3.2181840    0.4826340
  H    5.0163010    4.5719300    0.7652820
  C    4.3727810    1.3650570   -0.4028090
  H    3.9272880    2.4182320    1.4194410
  H    3.5920520    0.5918720   -0.2385200
  H    5.3343480    0.9581230   -0.0227860
  H    4.4690310    1.5481190   -1.4948210
$end
$rem
   JOBTYPE           opt
   EXCHANGE        B97M-V            
   BASIS             6-31G*
  GEOM_OPT_MAX_CYCLES 500

$end