$molecule
0 9
  N   -6.2015027    2.5199047   -0.0218934
  C   -4.8441723    2.0589415    0.3019339
  C   -3.8497859    3.1913499    0.0925198
  N   -2.5383569    3.0235562    0.4271601
  C   -1.5480253    4.0785892    0.2374540
  H   -2.2539451    2.1164269    0.8239729
  C   -0.1446106    3.6458169    0.6218437
  N    0.8878296    4.5247641    0.4682920
  C    2.2739669    4.2133187    0.8131258
  H    0.6611176    5.4699157    0.1193330
  C    3.0886066    5.4876179    0.7319256
  O    3.6751636    6.0062226    1.8327590
  H    3.6034141    5.5824004    2.6992161
  O    3.2059881    6.0709610   -0.3349663
  O    0.0574955    2.5290623    1.0785841
  O   -4.2325399    4.2576008   -0.3718354
  H   -6.4539543    3.3145647    0.6104252
  H   -6.9046299    1.7700205    0.1532469
  O   -1.8928098    5.1733913    1.0153394
  H   -1.5198081    4.3346096   -0.8454800
  C   -4.4554697    0.8532344   -0.5886106
  H   -4.8004586    1.7662734    1.3752555
  C   -5.2459182   -0.4037156   -0.3341906
  H   -3.3929254    0.5815197   -0.4187897
  H   -4.5699197    1.1463509   -1.6549457
  N   -5.0607929   -1.5358052   -1.0393888
  N   -6.1919727   -0.5467828    0.6188549
  C   -6.6162349   -1.8194963    0.4937419
  C   -5.9205354   -2.4293034   -0.5262685
  H   -7.3819122   -2.2728815    1.1086296
  H   -4.3886946   -1.6908463   -1.8234146
  H   -6.0312604   -3.4498159   -0.8682534
  C    2.8365131    3.1102059   -0.1300132
  H    2.2920778    3.8437508    1.8622185
  C    4.2108544    2.4937831    0.2552267
  H    2.8618996    3.4873584   -1.1764496
  H    2.1221185    2.2633790   -0.1129014
  C    5.3909889    3.4733384    0.1648334
  H    5.4690357    3.9020393   -0.8572906
  H    6.3399505    2.9463321    0.4022581
  H    5.3073623    4.2875334    0.9043763
  C    4.4988423    1.2971518   -0.6661856
  H    4.1505011    2.1070278    1.2965607
  H    3.6919094    0.5380118   -0.5819653
  H    5.4534899    0.8066935   -0.3783182
  H    4.5709766    1.6245395   -1.7259967
  C   -2.1604081    6.4257429    0.5590527
  C   -2.5168979    7.4875847    1.5741444
  C   -2.8079279    8.8757336    1.0402551
  H   -1.6718646    7.5684968    2.2902785
  H   -3.4150209    7.1400119    2.1273131
  O   -3.1302885    9.8639076    1.9009789
  H   -3.1804710    9.7089784    2.8547367
  O   -2.1085252    6.6767825   -0.6371713
  O   -2.7589508    9.1285498   -0.1531739
$end
$rem
   JOBTYPE           opt
   EXCHANGE        B97M-V            
   BASIS             6-31G*
  SCF_CONVERGENCE  =  500 
$end