$molecule
0 2
  N   -6.3987310    2.2551200   -0.4717740
  C   -5.0679100    1.8680210    0.0163480
  C   -4.0649940    2.9724220   -0.2824400
  N   -2.7825290    2.8731030    0.1696480
  C   -1.7818720    3.8960300   -0.1118640
  H   -2.5268160    2.0407780    0.7202750
  C   -0.4093530    3.5500190    0.4376430
  N    0.6383930    4.3896860    0.1978820
  C    1.9940860    4.1415850    0.6805520
  C    2.8725900    5.3403100    0.3748990
  O    3.4626150    6.0377030    1.3693050
  H    3.3481610    5.7999240    2.2997930
  O    3.0547630    5.6857510   -0.7826400
  O   -0.2452240    2.5317380    1.0953010
  O   -4.4131010    3.9535550   -0.9273260
  H   -6.7026900    3.1288390    0.0173630
  H   -7.1087080    1.5268210   -0.2415460
  H    0.4509890    5.2534310   -0.3356430
  O   -2.2012550    5.1173510    0.4436860
  H   -1.6875880    3.9755710   -1.2216740
  H   -1.9833400    5.8318410   -0.2102590
  C   -4.6048250    0.5534520   -0.6590640
  H   -5.1046770    1.7343600    1.1210770
  C   -5.4030670   -0.6685190   -0.2872700
  H   -3.5566820    0.3272190   -0.3725640
  H   -4.6383700    0.6888240   -1.7621550
  N   -5.1541100   -1.8858910   -0.8061590
  N   -6.4194460   -0.6921040    0.6016030
  C   -6.8221060   -1.9777440    0.6289890
  C   -6.0438290   -2.7134460   -0.2367620
  H   -7.6296880   -2.3536100    1.2427190
  H   -4.4213770   -2.1381050   -1.5062100
  H   -6.1188620   -3.7743510   -0.4358280
  C    2.5918010    2.8717910    0.0306850
  H    1.9547610    4.0035430    1.7840760
  C    4.0031980    2.5857800    0.5540740
  H    2.6278550    3.0033420   -1.0733950
  H    1.9588820    1.9879510    0.2494230
  C    4.6028330    1.3779290   -0.1041980
  H    3.9863810    2.4381350    1.6556580
  N    5.7234110    1.4999020   -0.8497490
  H    6.1721710    2.4191680   -0.9746480
  H    6.1432460    0.6750960   -1.3037300
  O    4.0808500    0.2821250    0.0383020
$end


$rem
   JOBTYPE           opt
   EXCHANGE        B97M-V            
   BASIS             6-31G*
   GEOM_OPT_MAX_CYCLES 500

$end