$molecule
   0  1
N         -6.39873        2.25512       -0.47177
C         -5.06791        1.86802        0.01635
C         -4.06499        2.97242       -0.28244
N         -2.78253        2.87310        0.16965
C         -1.78187        3.89603       -0.11186
H         -2.52682        2.04078        0.72028
C         -0.40935        3.55002        0.43764
N          0.63839        4.38969        0.19788
C          1.99409        4.14158        0.68055
C          2.87259        5.34031        0.37490
O          3.46261        6.03770        1.36930
H          3.34816        5.79992        2.29979
O          3.05476        5.68575       -0.78264
O         -0.24522        2.53174        1.09530
O         -4.41310        3.95356       -0.92733
H         -6.70269        3.12884        0.01736
H         -7.10871        1.52682       -0.24155
H          0.45099        5.25343       -0.33564
O         -2.20125        5.11735        0.44369
H         -1.68759        3.97557       -1.22167
H         -1.98334        5.83184       -0.21026
C         -4.60483        0.55345       -0.65906
H         -5.10468        1.73436        1.12108
C         -5.40307       -0.66852       -0.28727
H         -3.55668        0.32722       -0.37256
H         -4.63837        0.68882       -1.76215
N         -5.15411       -1.88589       -0.80616
N         -6.41945       -0.69210        0.60160
C         -6.82211       -1.97774        0.62899
C         -6.04383       -2.71345       -0.23676
H         -7.62969       -2.35361        1.24272
H         -4.42138       -2.13811       -1.50621
H         -6.11886       -3.77435       -0.43583
C          2.59180        2.87179        0.03068
H          1.95476        4.00354        1.78408
C          4.00320        2.58578        0.55407
H          2.62785        3.00334       -1.07340
H          1.95888        1.98795        0.24942
C          4.60283        1.37793       -0.10420
H          3.98638        2.43814        1.65566
N          5.72341        1.49990       -0.84975
H          6.17217        2.41917       -0.97465
H          6.14325        0.67510       -1.30373
O          4.08085        0.28213        0.03830
$end

$rem
   JOBTYPE           opt
   EXCHANGE        B97M-V            
   BASIS             6-31G*
$end