$molecule
0 2
  N   -6.5858560    1.8819910   -0.8331880
  C   -5.2759590    1.5890010   -0.2349830
  C   -4.3033860    2.7175600   -0.5414030
  N   -3.0508900    2.7084200   -0.0027700
  C   -2.0878670    3.7744890   -0.2658590
  H   -2.7911830    1.9225700    0.6106520
  C   -0.7287750    3.5255250    0.3702550
  N    0.2754490    4.4258680    0.1700040
  C    1.6136200    4.2751110    0.7334690
  C    2.4259380    5.5275970    0.4629910
  O    2.9093260    6.2719860    1.4806090
  H    2.7575660    6.0350060    2.4059720
  O    2.6512720    5.8743280   -0.6864870
  O   -0.5408920    2.5342600    1.0619940
  O   -4.6520080    3.6422780   -1.2646590
  H   -6.9582300    2.7708960   -0.4254510
  H   -7.2794390    1.1385910   -0.6014810
  H    0.0623580    5.2664650   -0.3905420
  O   -2.5979630    4.9924860    0.1596950
  H   -1.9210810    3.8286800   -1.3636140
  C   -4.7170690    0.2531410   -0.7829750
  H   -5.3809070    1.5283360    0.8717960
  C   -5.4898270   -0.9718860   -0.3687880
  H   -3.6816890    0.0947330   -0.4162340
  H   -4.6848530    0.3078710   -1.8929110
  N   -5.1625480   -2.2125500   -0.7771060
  N   -6.5587050   -0.9731620    0.4566600
  C   -6.9132430   -2.2690320    0.5580450
  C   -6.0544800   -3.0328370   -0.2005120
  H   -7.7430560   -2.6322190    1.1491490
  H   -4.3780130   -2.4845630   -1.4103020
  H   -6.0766260   -4.1077180   -0.3217140
  C    2.3303430    3.0429540    0.1347900
  H    1.5199720    4.1459600    1.8347950
  C    3.7265890    2.8593410    0.7381160
  H    2.4193430    3.1680090   -0.9670930
  H    1.7459600    2.1204510    0.3286950
  C    4.4479660    1.6980740    0.1199740
  H    3.6589230    2.7133600    1.8378820
  N    5.5966620    1.9014590   -0.5623130
  H    5.9835380    2.8510590   -0.6655810
  H    6.1001470    1.1095900   -0.9889720
  O    3.9996680    0.5672650    0.2373750
  C   -2.9500960    5.3034190    1.4364240
  C   -3.4992810    6.6845210    1.7043990
  C   -3.8940590    6.9919350    3.1311640
  H   -4.3968110    6.8213520    1.0642290
  H   -2.7290700    7.4218930    1.3930260
  O   -3.7656380    6.0813420    4.1206350
  H   -4.0222720    6.2837400    5.0315410
  O   -2.8279010    4.4778210    2.3308300
  O   -4.3440110    8.0980470    3.3899870
$end

$rem
   JOBTYPE           opt
   EXCHANGE        B97M-V            
   BASIS             6-31G*
   GEOM_OPT_MAX_CYCLES 500

$end