$comment
   malonyl-SNAC geom opt with no constraints.
$end

$molecule
   0  1
C          2.23059        2.37870        1.69792
H          2.59004        2.00037        2.67921
H          2.64994        3.39449        1.53967
C          0.72724        2.47014        1.75197
O          0.01965        1.84755        0.97416
S         -0.04166        3.52267        2.98721
C         -0.16025        2.22930        4.27735
H          0.50981        1.37256        4.04818
H          0.19343        2.66856        5.23404
N         -1.52578        1.76321        4.41263
H         -2.25635        2.15627        3.79935
C         -1.87521        0.82371        5.33149
O         -1.03468        0.33679        6.07491
C         -3.30227        0.37760        5.44284
H         -3.94576        1.24740        5.69152
H         -3.41439       -0.38871        6.23966
H         -3.63372       -0.05879        4.47757
C          2.72820        1.47893        0.59598
O          3.38659        0.48840        0.87069
O          2.47079        1.76416       -0.69843
H          1.96808        2.55023       -0.95414

$end

$rem
   JOBTYPE           opt
   EXCHANGE        b3lyp            
   BASIS             6-31G*
$end
