$comment
   serine geom opt with no constraints.
$end

$molecule
   0  1
14

C         -4.60184        1.69168       -0.05214
H         -4.69683        2.11382       -1.07770
N         -4.56862        2.78291        0.92596
H         -5.43523        3.36151        0.84360
H         -3.76636        3.41964        0.71510
C         -3.28784        0.88579        0.01659
H         -3.16029        0.45434        1.03283
H         -3.31228        0.03291       -0.70060
O         -2.18079        1.70118       -0.26021
H         -2.16072        1.82967       -1.24449
C         -5.81429        0.81263        0.20294
O         -5.68355       -0.37057        0.47916
O         -7.06141        1.32311        0.11193
H         -7.22356        2.24470       -0.13190



$end

$rem
   JOBTYPE           opt
   EXCHANGE        b3lyp            
   BASIS             6-31G
$end