$comment
   malonyl-SNAC geom opt with no constraints.
$end

$molecule
   0  1

C          1.20117        0.02843       -0.01534
C          0.53011        0.95357       -1.04439
C          1.02697        0.67129       -2.45814
N         -0.92369        0.82013       -0.92519
O          2.21392        0.81282       -2.70675
O          2.59128        0.22356        0.01061
O          0.20464        0.28846       -3.46254
H          0.94658       -1.03810       -0.22327
H          0.80767        0.25720        0.99812
H          0.79506        2.00392       -0.79070
H         -1.22875       -0.15620       -1.14577
H         -1.40162        1.49841       -1.56223
H          3.00117       -0.51236       -0.51443
H         -0.74653        0.15659       -3.36364

$end

$rem
   JOBTYPE           opt
   EXCHANGE        b3lyp            
   BASIS             6-31G*
$end