$comment
   serine geom opt with no constraints.
$end

$molecule
   0  1
C         -6.71375        2.83702        0.25998
C         -5.39735        3.48549       -0.09496
C         -4.15105        2.57629        0.05045
H         -5.29186        4.35988        0.58351
H         -5.44863        3.86086       -1.14017
C         -2.88058        3.43896       -0.14275
C         -1.57266        2.67240        0.07893
H         -2.90476        4.27114        0.59565
H         -2.87660        3.87944       -1.16430
O         -7.84719        3.55980        0.14079
H         -8.71100        3.18652        0.36675
O         -6.77019        1.68886        0.67594
N         -4.18556        1.49198       -0.94112
H         -4.13637        2.15374        1.08091
H         -3.41741        0.81205       -0.74651
H         -5.06935        0.94326       -0.86693
O         -0.49511        3.55750       -0.04976
H         -1.46865        1.86605       -0.67805
H         -1.57721        2.23894        1.10414
H          0.32379        3.02187        0.11643


$end

$rem
   JOBTYPE           opt
   EXCHANGE        b3lyp            
   BASIS             6-31G
$end