$comment
   GHSLG peptide geom opt with no constraints.
$end

$molecule
0 1
  C   -3.6090300    1.2856720   -0.0352010
  C   -2.2815710    1.9794240    0.0577270
  H   -4.1728290    1.4354020    0.9093820
  H   -3.4865850    0.1952710   -0.2049090
  H   -4.1924710    1.7116110   -0.8781990
  N   -1.1212570    1.2786480   -0.0634190
  C    0.1746100    1.9275270    0.0244690
  H   -1.1663000    0.2596880   -0.2213500
  C    1.3077920    0.9160740   -0.1457980
  H    0.2731950    2.4193900    1.0170590
  H    0.2543550    2.6988890   -0.7726350
  S    2.9251950    1.7376280   -0.0080750
  H    1.2424210    0.3988500   -1.1269900
  H    1.2448690    0.1393200    0.6457730
  H    2.8070720    2.3482990   -1.2714010
  O   -2.2601740    3.1879160    0.2448030


$end

$rem
   JOBTYPE           opt
   EXCHANGE        B97M-V            
   BASIS             6-31G*
$end