$molecule
0 1
  Fe   -1.4954710    0.8873770   -1.3866610
  O   -1.1573800    2.1257640   -2.8040290
  N   -0.3172770    1.7729130    0.1373830
  C   -0.1549070    3.0954510    0.4158100
  N    0.9497790    3.3588420    1.1563750
  C    1.5305770    2.1690370    1.3582390
  C    0.7666850    1.2062960    0.7484970
  O    0.0857640   -0.0893440   -1.6908740
  C    0.6322880   -1.1795160   -1.1287760
  C   -0.2531450   -2.1510110   -0.4377010
  H   -0.2988330   -1.8981260    0.6389910
  H    0.1036580   -3.1788770   -0.6120050
  H   -1.2679840   -2.1141720   -0.8910760
  O    1.7360590   -1.5299440   -1.5129240
  O   -2.0203580   -0.1674450    0.0902010
  C   -3.0096140    0.5282550    0.7131850
  C   -3.6334680    1.6348270   -0.0612370
  C   -5.0138430    2.1765720    0.2527420
  C   -5.3195000    3.6783960    0.0569760
  H   -5.3321400    1.8611630    1.2673120
  H   -5.6528310    1.6418650   -0.4795390
  C   -6.8592370    3.8560980    0.1278740
  H   -4.9786770    4.0097730   -0.9484660
  H   -4.8155530    4.2969410    0.8324240
  C   -7.3702650    5.2524520   -0.1109890
  H   -7.2280330    3.5187650    1.1207000
  H   -7.3250630    3.2144710   -0.6533450
  O   -8.7026340    5.4816900   -0.1171110
  H   -9.3417360    4.7665110    0.0221480
  O   -6.6031850    6.1796110   -0.3138880
  O   -3.0835280    1.8938410   -1.1165780
  O   -3.4185640    0.1990480    1.8129650
  N   -2.0176840   -0.3637480   -3.0350590
  C   -1.2711460   -1.3974150   -3.5521620
  N   -1.6368040   -1.7935930   -4.7778320
  C   -2.6457520   -0.9907900   -5.1050750
  C   -2.9015620   -0.1172610   -4.0429830
  H   -3.0884770   -1.0270610   -6.0961640
  H   -3.5917870    0.7076840   -4.1203270
  H   -0.4070320   -1.8554170   -3.1337200
  H    2.4846490    2.0121220    1.8634980
  H    1.0951960    0.1902730    0.7232630
  H   -0.7498540    3.8963300    0.0110160
  O   -0.5608630    3.1930500   -2.3311090
$end

$rem
   JOBTYPE           opt
   EXCHANGE        B97M-V            
   BASIS             6-31G*
$end