$molecule
0 1
  Fe   -1.0706370    0.9001130   -1.4704660
  O   -1.6841280    2.7486010   -1.5548840
  N   -0.0584990    1.9204050    0.0326470
  C    0.0629820    3.2344100    0.3741630
  N    0.8767100    3.4284720    1.4301140
  C    1.3003000    2.2017210    1.7690640
  C    0.7364470    1.2835400    0.9197660
  O    0.6061050   -0.0079790   -1.5990660
  C    0.8231690   -1.3397960   -1.4668440
  C   -0.1538530   -2.2166310   -0.7318830
  H   -0.2636720   -1.8566950    0.3119000
  H    0.2133070   -3.2643720   -0.6878470
  H   -1.1490990   -2.2124040   -1.2159810
  O    1.8728030   -1.8164430   -1.8676320
  O   -1.7592800    0.2128740    0.1743700
  C   -2.8014160    0.9737420    0.5742880
  C   -3.3432190    1.7696420   -0.5299780
  C   -4.8425330    2.0632280   -0.3798800
  C   -5.1960680    3.5602360   -0.3436290
  H   -5.2502760    1.6099650    0.5497590
  H   -5.3907370    1.5944620   -1.2271980
  C   -6.7076920    3.7511780   -0.1290250
  H   -4.8894060    4.0310970   -1.3032540
  H   -4.6515610    4.0505710    0.4941180
  C   -7.1376500    5.1971560   -0.1136850
  H   -6.9958750    3.2954570    0.8439660
  H   -7.2621590    3.2345720   -0.9411800
  O   -8.4382480    5.5076770    0.0703600
  H   -9.1092810    4.8215230    0.1956900
  O   -6.3270710    6.0977320   -0.2683260
  O   -2.9933250    1.0955180   -1.4474760
  O   -3.2975720    0.8611820    1.6849160
  N   -1.9081220   -0.2582960   -3.0219780
  C   -1.2800460   -1.2422420   -3.7196680
  N   -2.0350600   -1.7778500   -4.6977750
  C   -3.1909080   -1.1076150   -4.6469700
  C   -3.1228570   -0.1810870   -3.6392330
  H   -4.0222790   -1.2677880   -5.3204540
  H   -3.9235050    0.5137140   -3.4276310
  H   -0.2759470   -1.5769080   -3.5728260
  H    1.9848760    1.9912050    2.5791080
  H    0.9059680    0.2174880    0.9482500
  H   -0.4156890    4.0654800   -0.1231510
  O   -2.5745260    2.8448460   -0.6145900
$end

$rem
   JOBTYPE           opt
   EXCHANGE        B97M-V            
   BASIS             6-31G*
$end