$molecule
0 1
  Fe   -1.3800300    0.9829820   -1.2755220
  O   -1.0633550    2.1387120   -2.6520630
  H   -1.1837070    3.0211080   -2.2564420
  H   -1.9024270    2.0075070   -3.1521830
  N   -0.0733010    1.7660120    0.2268080
  C    0.1300860    3.0858480    0.4707370
  N    1.3218180    3.3516470    1.0545620
  C    1.8745170    2.1585420    1.2990850
  C    1.0395810    1.1784600    0.7807280
  O    0.1624630    0.0359110   -1.6561610
  C    0.6400280   -1.1175330   -1.2194490
  C   -0.3297200   -2.0519090   -0.5640540
  H   -0.2888580   -1.7865310    0.4913620
  H   -0.0558630   -3.1067830   -0.7368580
  H   -1.3971910   -1.9564800   -0.9210670
  O    1.6176170   -1.5517640   -1.8109460
  O   -1.9574040   -0.0271420    0.3345050
  C   -2.9742080    0.6808130    0.9610900
  C   -3.5525960    1.7572730    0.1203910
  C   -4.9860230    2.2268270    0.2837210
  C   -5.3308660    3.7080990    0.0562600
  H   -5.3965500    1.8938140    1.2562590
  H   -5.5300520    1.6632440   -0.5107050
  C   -6.8746800    3.8485570    0.1081920
  H   -4.9723800    4.0347150   -0.9460200
  H   -4.8561730    4.3362750    0.8382930
  C   -7.4089880    5.2375330   -0.1235020
  H   -7.2402330    3.5057690    1.1006720
  H   -7.3238020    3.1950600   -0.6728500
  O   -8.7445470    5.4476210   -0.1245680
  H   -9.3742350    4.7238810    0.0125960
  O   -6.6563090    6.1781370   -0.3185220
  O   -2.9608410    1.9971730   -0.9272290
  O   -3.5087590    0.3267750    2.0158590
  N   -1.9668090   -0.2659080   -3.1585660
  C   -1.1563020   -1.3054310   -3.5640130
  N   -1.3379760   -1.7656220   -4.7953510
  C   -2.3311970   -1.0743660   -5.3097980
  C   -2.7982520   -0.1347870   -4.3195980
  H   -2.5534000   -1.3404930   -6.3640330
  H   -3.5881930    0.6065690   -4.6605830
  H   -0.3898750   -1.8124050   -3.0713800
  H    2.8322990    2.0473990    1.8111030
  H    1.3225260    0.1355280    0.7594110
  H   -0.5303150    3.8790360    0.1802310
$end

$rem
   JOBTYPE           opt
   EXCHANGE        B97M-V            
   BASIS             6-31G*
$end